```smt2
; [NEW] At line 113, console.log() with string argument succeeds
; PRINCIPLE: P5 - Semantic Correctness
; console.log takes a string, outputs it
(declare-const logged Bool)
(assert (= logged true))
(assert (not logged))
(check-sat)
; unsat → console.log() always succeeds
```

```smt2
; [NEW] At line 113, VERSION constant is non-empty
; PRINCIPLE: P5 - Semantic Correctness
(declare-const version String)
(assert (= version "0.3.0"))
(assert (= version ""))
(check-sat)
; unsat → VERSION = "0.3.0" is guaranteed non-empty
```

```smt2
; [NEW] At line 113, help text strings are static
; PRINCIPLE: P6 - Boundary Input
; printHelp outputs predetermined text
; No user input affects the strings
(declare-const help_output String)
; All help strings are literals
(assert (not (= help_output "")))
(check-sat)
; unsat → help strings are never empty (they're hardcoded literals)
```